500
300
210
210
209
209
209
209
209
207
207
207
206
205
205
205
205
204
203
203
202
202
202
201
201
201
201
201
201
201
200
200
199
198
197
196
196
196
195
195
195
194
194
194
193
193
193
193
193
192
192
192
192
191
191
190
190
189
189
188
188
188
188
187
187
187
186
186
186
186
186
185
185
185
185
185
185
185
184
184
183
183
182
182
182
181
181
180
180
180
179
179
179
179
178
178
178
177
177
177
176
176
176
176
176
176
176
175
175
175
174
174
174
172
172
172
172
172
172
171
171
171
170
170
169
169
169
169
168
168
168
168
168
167
166
166
165
165
165
165
165
165
164
164
163
163
162
162
162
162
162
161
161
161
161
161
160
160
160
160
159
157
157
157
155
155
154
154
154
154
154
153
153
153
153
152
152
152
152
151
150
147
147
147
146
146
146
145
145
145
144
144
143
143
142
142
141
141
140
140
138
137
137
137
136
136
136
136
136
135
135
135
134
134
134
132
131
131
131
131
130
130
129
129
128
128
128
127
127
126
125
125
124
124
124
124
124
123
123
123
122
122
121
121
120
120
120
120
120
119
119
119
119
119
118
118
118
118
117
117
117
117
117
117
117
117
116
116
116
116
115
115
115
115
114
114
114
113
113
113
111
111
111
110
109
109
108
108
107
107
106
106
106
106
106
105
103
103
103
103
102
102
101
100
100
99
99
99
99
98
98
97
97
97
97
96
96
95
95
95
95
95
94
94
94
94
94
93
93
93
93
93
92
92
92
91
91
91
90
90
90
90
89
89
89
89
89
88
88
88
88
88
87
87
87
86
86
86
86
85
85
85
84
83
83
83
82
82
81
81
81
81
81
81
81
81
81
80
79
78
78
77
77
77
77
77
76
75
75
75
75
74
74
73
73
73
73
72
72
72
72
71
71
71
70
69
68
67
67
67
66
66
66
66
65
64
64
63
63
62
62
62
62
61
61
60
60
59
59
58
58
58
57
57
57
57
56
56
55
55
54
54
52
52
52
51
49
49
49
48
47
46
46
45
45
45
45
45
45
44
44
44
43
43
43
43
42
42
41
41
41
40
40
39
39
39
39
38
37
37
37
37
36
35
35
35
35
34
34
34
34
33
33
33
33
32
32
32
32
31
31
30
